NAME : WHIZZKIDS96.1183_4715.tour
COMMENT : Cost = 1183_4715
COMMENT : Found by LKH-3 [Keld Helsgaun] Wed May 24 15:27:36 2023
TYPE : TOUR
DIMENSION : 124
TOUR_SECTION
1
84
85
90
87
97
105
110
106
107
99
103
102
96
89
88
94
95
113
98
93
91
80
57
52
50
43
38
22
19
123
86
92
115
114
116
121
119
118
120
117
112
108
111
109
104
101
100
83
78
75
72
53
47
30
21
20
17
10
12
13
4
5
8
122
74
70
62
56
51
45
46
37
35
26
31
32
33
36
44
42
24
29
28
25
23
18
16
14
11
9
2
7
6
3
124
82
73
61
66
69
68
71
76
79
81
77
67
65
64
63
58
60
59
55
54
49
48
40
41
27
39
34
15
-1
EOF
